DIMENSION: 10
EDGE_WEIGHT_TYPE: EXPLICIT
EDGE_WEIGHT_FORMAT: FULL_MATRIX
EDGE_WEIGHT_SECTION:
32767 32767 32767 32767 13 32767 32767 25 25 32767 
32767 32767 32767 32767 32767 32767 32767 69 32767 71 
32767 32767 32767 32767 5 32767 32767 32767 81 32767 
32767 32767 32767 32767 52 32767 32767 35 32767 59 
13 32767 5 52 32767 78 32767 32767 32767 32767 
32767 32767 32767 32767 78 32767 35 32767 32767 78 
32767 32767 32767 32767 32767 35 32767 32767 32767 32767 
25 69 32767 35 32767 32767 32767 32767 32767 64 
25 32767 81 32767 32767 32767 32767 32767 32767 32767 
32767 71 32767 59 32767 78 32767 64 32767 32767 
EOF